p cnf 37 13
-9 14 2 23 -3 -22 27 -37 -15 5 7 0
-8 -32 -24 -9 37 18 -4 -7 -22 -1 11 0
1 13 9 -2 -20 -16 28 29 -24 -5 15 0
2 -10 -30 1 36 33 23 -14 -20 -37 8 0
-2 -8 -5 -9 11 14 1 -22 26 -4 6 0
-3 10 4 9 -1 -5 -14 28 6 11 -7 0
-1 9 -16 31 13 36 22 15 -5 -26 -21 0
10 -37 6 -4 -7 -1 18 17 3 -22 -5 0
-3 22 -10 -4 -12 -14 19 -2 -17 -8 1 0
10 -26 22 7 21 3 -2 1 18 31 -13 0
6 8 -3 29 21 -35 -25 30 -11 16 14 0
-4 7 -17 -22 25 34 -1 -20 2 -24 29 0
-8 -17 3 -2 36 -12 14 26 5 10 -1 0
